c Standarized MaxSat Instance
c{
c "sha1sum": "66ce40305731a814b9faadf121b12f94c0d01c76",
c "nvars": 40,
c "ncls": 228,
c "nhards": 0,
c "nhard_len_stats":
c    { "min": 0, "max": 0, "ave": 0.00,
c      "stddev": 0.00 },
c "nsofts": 228,
c "nsoft_len_stats":
c    { "min": 2, "max": 2, "ave": 2.00,
c      "stddev": 0.00 },
c "nsoft_wts": 10,
c "soft_wt_stats":
c    { "min": 1, "max": 10, "ave": 5.95,
c      "stddev": 2.84 }
c}
c------------------------------------------------------------
c File:  c-fat200-2.clq
c
c Source: Panos Pardalos pardalos@math.ufl.edu
c
c Reference: P. Berman and A. Pelc, Distributed Fault Diagnosis for
c            Multiprocessor Systems, Proceedings of the 20th Annual
c            International Symposium on Fault-Tolerant Computing
c            Newcastle, UK, 340-346 (1990)
c
p wcnf 40 228 1357
9 1 8 0
9 -1 -8 0
4 1 12 0
4 -1 -12 0
8 1 19 0
8 -1 -19 0
8 1 26 0
8 -1 -26 0
10 1 30 0
10 -1 -30 0
2 1 37 0
2 -1 -37 0
4 2 9 0
4 -2 -9 0
8 2 13 0
8 -2 -13 0
3 2 20 0
3 -2 -20 0
6 2 27 0
6 -2 -27 0
5 2 31 0
5 -2 -31 0
7 2 38 0
7 -2 -38 0
4 3 10 0
4 -3 -10 0
6 3 14 0
6 -3 -14 0
10 3 21 0
10 -3 -21 0
10 3 28 0
10 -3 -28 0
7 3 32 0
7 -3 -32 0
8 3 39 0
8 -3 -39 0
2 4 11 0
2 -4 -11 0
7 4 15 0
7 -4 -15 0
1 4 22 0
1 -4 -22 0
3 4 29 0
3 -4 -29 0
2 4 33 0
2 -4 -33 0
9 4 40 0
9 -4 -40 0
2 5 12 0
2 -5 -12 0
5 5 16 0
5 -5 -16 0
2 5 23 0
2 -5 -23 0
2 5 30 0
2 -5 -30 0
10 5 34 0
10 -5 -34 0
3 6 13 0
3 -6 -13 0
6 6 17 0
6 -6 -17 0
9 6 24 0
9 -6 -24 0
7 6 31 0
7 -6 -31 0
3 6 35 0
3 -6 -35 0
7 7 14 0
7 -7 -14 0
6 7 18 0
6 -7 -18 0
5 7 25 0
5 -7 -25 0
10 7 32 0
10 -7 -32 0
3 7 36 0
3 -7 -36 0
8 8 15 0
8 -8 -15 0
6 8 19 0
6 -8 -19 0
8 8 26 0
8 -8 -26 0
5 8 33 0
5 -8 -33 0
9 8 37 0
9 -8 -37 0
3 9 16 0
3 -9 -16 0
4 9 20 0
4 -9 -20 0
9 9 27 0
9 -9 -27 0
10 9 34 0
10 -9 -34 0
1 9 38 0
1 -9 -38 0
10 10 17 0
10 -10 -17 0
6 10 21 0
6 -10 -21 0
1 10 28 0
1 -10 -28 0
2 10 35 0
2 -10 -35 0
7 10 39 0
7 -10 -39 0
9 11 18 0
9 -11 -18 0
4 11 22 0
4 -11 -22 0
1 11 29 0
1 -11 -29 0
1 11 36 0
1 -11 -36 0
5 11 40 0
5 -11 -40 0
1 12 19 0
1 -12 -19 0
3 12 23 0
3 -12 -23 0
10 12 30 0
10 -12 -30 0
10 12 37 0
10 -12 -37 0
9 13 20 0
9 -13 -20 0
3 13 24 0
3 -13 -24 0
6 13 31 0
6 -13 -31 0
4 13 38 0
4 -13 -38 0
8 14 21 0
8 -14 -21 0
6 14 25 0
6 -14 -25 0
7 14 32 0
7 -14 -32 0
6 14 39 0
6 -14 -39 0
1 15 22 0
1 -15 -22 0
5 15 26 0
5 -15 -26 0
10 15 33 0
10 -15 -33 0
10 15 40 0
10 -15 -40 0
8 16 23 0
8 -16 -23 0
3 16 27 0
3 -16 -27 0
8 16 34 0
8 -16 -34 0
7 17 24 0
7 -17 -24 0
4 17 28 0
4 -17 -28 0
7 17 35 0
7 -17 -35 0
2 18 25 0
2 -18 -25 0
5 18 29 0
5 -18 -29 0
9 18 36 0
9 -18 -36 0
9 19 26 0
9 -19 -26 0
4 19 30 0
4 -19 -30 0
3 19 37 0
3 -19 -37 0
9 20 27 0
9 -20 -27 0
4 20 31 0
4 -20 -31 0
7 20 38 0
7 -20 -38 0
10 21 28 0
10 -21 -28 0
6 21 32 0
6 -21 -32 0
7 21 39 0
7 -21 -39 0
9 22 29 0
9 -22 -29 0
5 22 33 0
5 -22 -33 0
10 22 40 0
10 -22 -40 0
4 23 30 0
4 -23 -30 0
9 23 34 0
9 -23 -34 0
7 24 31 0
7 -24 -31 0
10 24 35 0
10 -24 -35 0
5 25 32 0
5 -25 -32 0
3 25 36 0
3 -25 -36 0
10 26 33 0
10 -26 -33 0
10 26 37 0
10 -26 -37 0
2 27 34 0
2 -27 -34 0
9 27 38 0
9 -27 -38 0
7 28 35 0
7 -28 -35 0
5 28 39 0
5 -28 -39 0
7 29 36 0
7 -29 -36 0
3 29 40 0
3 -29 -40 0
8 30 37 0
8 -30 -37 0
4 31 38 0
4 -31 -38 0
5 32 39 0
5 -32 -39 0
3 33 40 0
3 -33 -40 0
